NAME : portcgen-15-13
COMMENT : portcgen N=15, seed=13
TYPE : TSP
DIMENSION : 15
EDGE_WEIGHT_TYPE : EUC_2D
NODE_COORD_SECTION
1 225858 -168465
2 -210072 66091
3 266957 -212961
4 136737 270248
5 -130751 66133
6 142516 1175384
7 258410 211390
8 -268398 -167397
9 326801 -228805
10 -117108 -301520
11 67264 -80393
12 -130819 -105988
13 -149587 66839
14 -358346 -156935
15 -179063 -105361
